c uprop, v00.0, 
c reading from data/prog572.c.cnf
c done reading: 0
p cnf 119 398
-64 -69 0
-69 -72 0
64 69 72 0
64 72 -78 0
-64 -72 -78 0
-64 72 78 0
64 -72 78 0
69 -82 0
-69 82 0
-69 -85 0
69 85 0
82 -89 0
-82 89 0
-82 -92 0
82 92 0
89 -95 0
-89 95 0
-66 -89 0
66 89 0
-74 95 0
74 -95 0
-95 -98 0
95 98 0
74 -101 0
-74 101 0
-61 -74 0
61 74 0
-58 101 0
58 -101 0
-55 -101 0
55 101 0
-52 64 0
52 -64 0
49 -72 0
-49 72 0
49 -76 0
64 -76 0
-49 -64 76 0
-49 -64 -80 0
49 64 -80 0
-49 64 80 0
49 -64 80 0
-72 -76 0
-72 87 0
-76 87 0
72 76 -87 0
-47 -64 0
-47 -72 0
47 64 72 0
-46 64 72 0
-46 -64 -72 0
46 -64 72 0
46 64 -72 0
-45 47 0
45 -47 0
-44 -47 0
44 47 0
-43 45 0
-43 -52 0
43 -45 52 0
-42 -45 52 0
-42 45 -52 0
42 45 52 0
42 -45 -52 0
-41 43 0
-41 -80 0
41 -43 80 0
-40 -43 80 0
-40 43 -80 0
40 43 80 0
40 -43 -80 0
41 -103 0
-87 -103 0
-41 87 103 0
-41 87 -104 0
41 -87 -104 0
41 87 104 0
-41 -87 104 0
103 -105 0
-103 105 0
-103 -106 0
103 106 0
105 -107 0
-105 107 0
-70 -105 0
70 105 0
-79 107 0
79 -107 0
-83 -107 0
83 107 0
79 -86 0
-79 86 0
-79 -90 0
79 90 0
86 -93 0
-86 93 0
-86 -96 0
86 96 0
-67 93 0
67 -93 0
-75 -93 0
75 93 0
67 -99 0
-67 99 0
-67 -102 0
67 102 0
-62 -109 0
62 109 0
-59 109 0
59 -109 0
-56 62 0
-56 -110 0
56 -62 110 0
-62 110 -111 0
62 -110 -111 0
62 110 111 0
-62 -110 111 0
-53 56 0
-53 -113 0
53 -56 113 0
-56 113 -114 0
56 -113 -114 0
56 113 114 0
-56 -113 114 0
-50 53 0
-50 -115 0
50 -53 115 0
-53 115 -116 0
53 -115 -116 0
53 115 116 0
-53 -115 116 0
50 -117 0
-117 -119 0
-50 117 119 0
-39 -50 119 0
-39 50 -119 0
39 50 119 0
39 -50 -119 0
-38 117 0
-37 -38 0
37 38 -117 0
-36 37 -117 0
-36 -37 117 0
36 37 117 0
36 -37 -117 0
-35 38 0
-34 -35 0
34 35 -38 0
-32 34 -38 0
-32 -34 38 0
32 34 38 0
32 -34 -38 0
-31 110 0
31 -110 0
30 -109 -113 0
-30 109 113 0
-30 113 0
-30 109 0
-29 -30 113 0
-29 -30 109 0
-29 -30 0
29 30 -113 0
29 30 -109 0
-29 109 113 0
28 -110 -115 0
28 -30 -115 0
28 -30 -110 0
-28 110 115 0
-28 30 115 0
-28 30 110 0
-27 -28 115 0
-27 -28 110 0
-27 -28 30 0
27 28 -115 0
27 28 -110 0
27 28 -30 0
27 -30 -110 -115 0
-27 30 110 115 0
26 -113 -119 0
26 -28 -119 0
26 -28 -113 0
-26 113 119 0
-26 28 119 0
-26 28 113 0
-25 -26 119 0
-25 -26 113 0
-25 -26 28 0
25 26 -119 0
25 26 -113 0
25 26 -28 0
25 -28 -113 -119 0
-25 28 113 119 0
24 -37 -115 0
24 -26 -37 0
24 -26 -115 0
-24 37 115 0
-24 26 37 0
-24 26 115 0
-23 -24 37 0
-23 -24 115 0
-23 -24 26 0
23 24 -37 0
23 24 -115 0
23 24 -26 0
23 -26 -37 -115 0
-23 26 37 115 0
22 -34 -119 0
22 -24 -34 0
22 -24 -119 0
-22 34 119 0
-22 24 34 0
-22 24 119 0
-22 34 -63 0
-22 -63 119 0
-22 24 -63 0
22 -34 63 0
22 63 -119 0
22 -24 63 0
-24 -34 63 -119 0
24 34 -63 119 0
37 -71 0
22 -71 0
-22 -37 71 0
-21 -22 -37 0
-21 22 37 0
21 22 -37 0
21 -22 37 0
-20 34 0
-20 71 0
20 -34 -71 0
-19 -34 -71 0
-19 34 71 0
19 -34 71 0
19 34 -71 0
-18 25 0
18 -25 0
17 -23 -109 0
-17 23 109 0
-17 23 0
-17 109 0
-16 -17 23 0
-16 -17 109 0
-16 -17 0
16 17 -23 0
16 17 -109 0
-16 23 109 0
-63 108 -110 0
-17 -63 108 0
-17 108 -110 0
63 -108 110 0
17 63 -108 0
17 -108 110 0
-63 108 0
108 -110 0
-17 108 0
-17 -63 -110 0
-21 112 -113 0
-21 -108 112 0
-108 112 -113 0
21 -112 113 0
21 108 -112 0
108 -112 113 0
-21 112 0
112 -113 0
-108 112 0
-21 -108 -113 0
-19 -115 118 0
-19 -112 118 0
-112 -115 118 0
19 115 -118 0
19 112 -118 0
112 115 -118 0
-19 118 0
-115 118 0
-112 118 0
-19 -112 -115 0
-20 33 -119 0
-20 33 -118 0
33 -118 -119 0
20 -33 119 0
20 -33 118 0
-33 118 119 0
-20 33 0
33 -119 0
33 -118 0
-20 -118 -119 0
-15 37 0
-15 33 0
15 -33 -37 0
33 -37 0
-33 37 0
-15 -34 0
15 -34 0
-15 34 0
-14 -109 0
14 109 0
-13 109 0
13 -109 0
-12 14 0
-12 -31 0
12 -14 31 0
-11 -14 31 0
-11 14 -31 0
11 14 31 0
11 -14 -31 0
-10 12 0
-10 -29 0
10 -12 29 0
-9 -12 29 0
-9 12 -29 0
9 12 29 0
9 -12 -29 0
-8 10 0
-8 -27 0
8 -10 27 0
-7 -10 27 0
-7 10 -27 0
7 10 27 0
7 -10 -27 0
-6 8 0
-6 -18 0
6 -8 18 0
-5 -8 18 0
-5 8 -18 0
5 8 18 0
5 -8 -18 0
-4 6 0
-4 -16 0
4 -6 16 0
-6 16 -68 0
6 -16 -68 0
6 16 68 0
-6 -16 68 0
4 -77 0
-4 77 0
-4 -81 0
4 81 0
77 -84 0
-77 84 0
-77 -88 0
77 88 0
84 -91 0
-84 91 0
-84 -94 0
84 94 0
-65 91 0
65 -91 0
-73 -91 0
73 91 0
65 -97 0
-65 97 0
-65 -100 0
65 100 0
-60 97 0
60 -97 0
-57 -97 0
57 97 0
-54 60 0
54 -60 0
-3 -60 0
3 60 0
-51 64 0
-51 109 0
51 -64 -109 0
-64 109 0
64 -109 0
-31 48 -72 0
48 -51 -72 0
-31 48 -51 0
31 -48 72 0
-48 51 72 0
31 -48 51 0
48 -72 0
-31 48 0
48 -51 0
-31 -51 -72 0
-29 -48 0
29 48 0
2 -27 -52 0
-2 27 52 0
-2 52 0
-2 27 0
2 -52 0
2 -27 0
1 -18 -80 0
1 -2 -80 0
1 -2 -18 0
-1 18 80 0
-1 2 80 0
-1 2 18 0
1 -80 0
1 -18 0
1 -2 0
-2 -18 -80 0
-16 -87 0
-1 -87 0
-1 -16 0
1 16 87 0
